c test
c
p cnf 26 436
1 0
2 0
3 0
4 0
6 8 -9 -20 4 5 -7 25 -23 17 2 14 16 18 -19 21 -1 24 -3 10 22 -15  0
6 8 -9 -20 4 5 -7 25 -23 17 2 14 16 18 -19 21 -1 -24 -3 10 -22 -15  0
6 8 -9 -20 4 5 -7 25 -23 17 2 14 16 18 -19 21 24 -3 10 -11 22 -15  0
6 8 -9 -20 4 5 -7 25 -23 17 2 14 16 18 -19 21 -24 -3 10 -11 -22 -15  0
6 8 -9 -20 4 5 -7 25 -23 17 2 14 -16 18 19 21 -1 24 -3 10 22 -15  0
6 8 -9 -20 4 5 -7 25 -23 17 2 14 -16 18 19 21 -1 -24 -3 10 -22 -15  0
6 8 -9 -20 4 5 -7 25 -23 17 2 14 -16 18 19 21 24 -3 10 -11 22 -15  0
6 8 -9 -20 4 5 -7 25 -23 17 2 14 -16 18 19 21 -24 -3 10 -11 -22 -15  0
6 8 -9 -20 4 5 -7 25 -23 17 2 14 -16 -18 -19 21 -1 24 -3 10 22 -15  0
6 8 -9 -20 4 5 -7 25 -23 17 2 14 -16 -18 -19 21 -1 -24 -3 10 -22 -15  0
6 8 -9 -20 4 5 -7 25 -23 17 2 14 -16 -18 -19 21 24 -3 10 -11 22 -15  0
6 8 -9 -20 4 5 -7 25 -23 17 2 14 -16 -18 -19 21 -24 -3 10 -11 -22 -15  0
6 8 -9 -20 4 5 -7 25 -23 -17 2 -14 16 18 -19 21 -1 24 -3 10 22 -15  0
6 8 -9 -20 4 5 -7 25 -23 -17 2 -14 16 18 -19 21 -1 -24 -3 10 -22 -15  0
6 8 -9 -20 4 5 -7 25 -23 -17 2 -14 16 18 -19 21 24 -3 10 -11 22 -15  0
6 8 -9 -20 4 5 -7 25 -23 -17 2 -14 16 18 -19 21 -24 -3 10 -11 -22 -15  0
6 8 -9 -20 4 5 -7 25 -23 -17 2 -14 -16 18 19 21 -1 24 -3 10 22 -15  0
6 8 -9 -20 4 5 -7 25 -23 -17 2 -14 -16 18 19 21 -1 -24 -3 10 -22 -15  0
6 8 -9 -20 4 5 -7 25 -23 -17 2 -14 -16 18 19 21 24 -3 10 -11 22 -15  0
6 8 -9 -20 4 5 -7 25 -23 -17 2 -14 -16 18 19 21 -24 -3 10 -11 -22 -15  0
6 8 -9 -20 4 5 -7 25 -23 -17 2 -14 -16 -18 -19 21 -1 24 -3 10 22 -15  0
6 8 -9 -20 4 5 -7 25 -23 -17 2 -14 -16 -18 -19 21 -1 -24 -3 10 -22 -15  0
6 8 -9 -20 4 5 -7 25 -23 -17 2 -14 -16 -18 -19 21 24 -3 10 -11 22 -15  0
6 8 -9 -20 4 5 -7 25 -23 -17 2 -14 -16 -18 -19 21 -24 -3 10 -11 -22 -15  0
6 8 -9 -20 4 5 -7 25 17 2 -12 14 16 18 -19 21 -1 24 -3 10 22 -15  0
6 8 -9 -20 4 5 -7 25 17 2 -12 14 16 18 -19 21 -1 -24 -3 10 -22 -15  0
6 8 -9 -20 4 5 -7 25 17 2 -12 14 16 18 -19 21 24 -3 10 -11 22 -15  0
6 8 -9 -20 4 5 -7 25 17 2 -12 14 16 18 -19 21 -24 -3 10 -11 -22 -15  0
6 8 -9 -20 4 5 -7 25 17 2 -12 14 -16 18 19 21 -1 24 -3 10 22 -15  0
6 8 -9 -20 4 5 -7 25 17 2 -12 14 -16 18 19 21 -1 -24 -3 10 -22 -15  0
6 8 -9 -20 4 5 -7 25 17 2 -12 14 -16 18 19 21 24 -3 10 -11 22 -15  0
6 8 -9 -20 4 5 -7 25 17 2 -12 14 -16 18 19 21 -24 -3 10 -11 -22 -15  0
6 8 -9 -20 4 5 -7 25 17 2 -12 14 -16 -18 -19 21 -1 24 -3 10 22 -15  0
6 8 -9 -20 4 5 -7 25 17 2 -12 14 -16 -18 -19 21 -1 -24 -3 10 -22 -15  0
6 8 -9 -20 4 5 -7 25 17 2 -12 14 -16 -18 -19 21 24 -3 10 -11 22 -15  0
6 8 -9 -20 4 5 -7 25 17 2 -12 14 -16 -18 -19 21 -24 -3 10 -11 -22 -15  0
6 8 -9 -20 4 5 -7 25 -17 2 -12 -14 16 18 -19 21 -1 24 -3 10 22 -15  0
6 8 -9 -20 4 5 -7 25 -17 2 -12 -14 16 18 -19 21 -1 -24 -3 10 -22 -15  0
6 8 -9 -20 4 5 -7 25 -17 2 -12 -14 16 18 -19 21 24 -3 10 -11 22 -15  0
6 8 -9 -20 4 5 -7 25 -17 2 -12 -14 16 18 -19 21 -24 -3 10 -11 -22 -15  0
6 8 -9 -20 4 5 -7 25 -17 2 -12 -14 -16 18 19 21 -1 24 -3 10 22 -15  0
6 8 -9 -20 4 5 -7 25 -17 2 -12 -14 -16 18 19 21 -1 -24 -3 10 -22 -15  0
6 8 -9 -20 4 5 -7 25 -17 2 -12 -14 -16 18 19 21 24 -3 10 -11 22 -15  0
6 8 -9 -20 4 5 -7 25 -17 2 -12 -14 -16 18 19 21 -24 -3 10 -11 -22 -15  0
6 8 -9 -20 4 5 -7 25 -17 2 -12 -14 -16 -18 -19 21 -1 24 -3 10 22 -15  0
6 8 -9 -20 4 5 -7 25 -17 2 -12 -14 -16 -18 -19 21 -1 -24 -3 10 -22 -15  0
6 8 -9 -20 4 5 -7 25 -17 2 -12 -14 -16 -18 -19 21 24 -3 10 -11 22 -15  0
6 8 -9 -20 4 5 -7 25 -17 2 -12 -14 -16 -18 -19 21 -24 -3 10 -11 -22 -15  0
6 8 -9 -20 4 -5 7 25 -23 17 2 14 16 18 -19 21 -1 24 -3 10 22 -15  0
6 8 -9 -20 4 -5 7 25 -23 17 2 14 16 18 -19 21 -1 -24 -3 10 -22 -15  0
6 8 -9 -20 4 -5 7 25 -23 17 2 14 16 18 -19 21 24 -3 10 -11 22 -15  0
6 8 -9 -20 4 -5 7 25 -23 17 2 14 16 18 -19 21 -24 -3 10 -11 -22 -15  0
6 8 -9 -20 4 -5 7 25 -23 17 2 14 -16 18 19 21 -1 24 -3 10 22 -15  0
6 8 -9 -20 4 -5 7 25 -23 17 2 14 -16 18 19 21 -1 -24 -3 10 -22 -15  0
6 8 -9 -20 4 -5 7 25 -23 17 2 14 -16 18 19 21 24 -3 10 -11 22 -15  0
6 8 -9 -20 4 -5 7 25 -23 17 2 14 -16 18 19 21 -24 -3 10 -11 -22 -15  0
6 8 -9 -20 4 -5 7 25 -23 17 2 14 -16 -18 -19 21 -1 24 -3 10 22 -15  0
6 8 -9 -20 4 -5 7 25 -23 17 2 14 -16 -18 -19 21 -1 -24 -3 10 -22 -15  0
6 8 -9 -20 4 -5 7 25 -23 17 2 14 -16 -18 -19 21 24 -3 10 -11 22 -15  0
6 8 -9 -20 4 -5 7 25 -23 17 2 14 -16 -18 -19 21 -24 -3 10 -11 -22 -15  0
6 8 -9 -20 4 -5 7 25 -23 -17 2 -14 16 18 -19 21 -1 24 -3 10 22 -15  0
6 8 -9 -20 4 -5 7 25 -23 -17 2 -14 16 18 -19 21 -1 -24 -3 10 -22 -15  0
6 8 -9 -20 4 -5 7 25 -23 -17 2 -14 16 18 -19 21 24 -3 10 -11 22 -15  0
6 8 -9 -20 4 -5 7 25 -23 -17 2 -14 16 18 -19 21 -24 -3 10 -11 -22 -15  0
6 8 -9 -20 4 -5 7 25 -23 -17 2 -14 -16 18 19 21 -1 24 -3 10 22 -15  0
6 8 -9 -20 4 -5 7 25 -23 -17 2 -14 -16 18 19 21 -1 -24 -3 10 -22 -15  0
6 8 -9 -20 4 -5 7 25 -23 -17 2 -14 -16 18 19 21 24 -3 10 -11 22 -15  0
6 8 -9 -20 4 -5 7 25 -23 -17 2 -14 -16 18 19 21 -24 -3 10 -11 -22 -15  0
6 8 -9 -20 4 -5 7 25 -23 -17 2 -14 -16 -18 -19 21 -1 24 -3 10 22 -15  0
6 8 -9 -20 4 -5 7 25 -23 -17 2 -14 -16 -18 -19 21 -1 -24 -3 10 -22 -15  0
6 8 -9 -20 4 -5 7 25 -23 -17 2 -14 -16 -18 -19 21 24 -3 10 -11 22 -15  0
6 8 -9 -20 4 -5 7 25 -23 -17 2 -14 -16 -18 -19 21 -24 -3 10 -11 -22 -15  0
6 8 -9 -20 4 -5 7 25 17 2 -12 14 16 18 -19 21 -1 24 -3 10 22 -15  0
6 8 -9 -20 4 -5 7 25 17 2 -12 14 16 18 -19 21 -1 -24 -3 10 -22 -15  0
6 8 -9 -20 4 -5 7 25 17 2 -12 14 16 18 -19 21 24 -3 10 -11 22 -15  0
6 8 -9 -20 4 -5 7 25 17 2 -12 14 16 18 -19 21 -24 -3 10 -11 -22 -15  0
6 8 -9 -20 4 -5 7 25 17 2 -12 14 -16 18 19 21 -1 24 -3 10 22 -15  0
6 8 -9 -20 4 -5 7 25 17 2 -12 14 -16 18 19 21 -1 -24 -3 10 -22 -15  0
6 8 -9 -20 4 -5 7 25 17 2 -12 14 -16 18 19 21 24 -3 10 -11 22 -15  0
6 8 -9 -20 4 -5 7 25 17 2 -12 14 -16 18 19 21 -24 -3 10 -11 -22 -15  0
6 8 -9 -20 4 -5 7 25 17 2 -12 14 -16 -18 -19 21 -1 24 -3 10 22 -15  0
6 8 -9 -20 4 -5 7 25 17 2 -12 14 -16 -18 -19 21 -1 -24 -3 10 -22 -15  0
6 8 -9 -20 4 -5 7 25 17 2 -12 14 -16 -18 -19 21 24 -3 10 -11 22 -15  0
6 8 -9 -20 4 -5 7 25 17 2 -12 14 -16 -18 -19 21 -24 -3 10 -11 -22 -15  0
6 8 -9 -20 4 -5 7 25 -17 2 -12 -14 16 18 -19 21 -1 24 -3 10 22 -15  0
6 8 -9 -20 4 -5 7 25 -17 2 -12 -14 16 18 -19 21 -1 -24 -3 10 -22 -15  0
6 8 -9 -20 4 -5 7 25 -17 2 -12 -14 16 18 -19 21 24 -3 10 -11 22 -15  0
6 8 -9 -20 4 -5 7 25 -17 2 -12 -14 16 18 -19 21 -24 -3 10 -11 -22 -15  0
6 8 -9 -20 4 -5 7 25 -17 2 -12 -14 -16 18 19 21 -1 24 -3 10 22 -15  0
6 8 -9 -20 4 -5 7 25 -17 2 -12 -14 -16 18 19 21 -1 -24 -3 10 -22 -15  0
6 8 -9 -20 4 -5 7 25 -17 2 -12 -14 -16 18 19 21 24 -3 10 -11 22 -15  0
6 8 -9 -20 4 -5 7 25 -17 2 -12 -14 -16 18 19 21 -24 -3 10 -11 -22 -15  0
6 8 -9 -20 4 -5 7 25 -17 2 -12 -14 -16 -18 -19 21 -1 24 -3 10 22 -15  0
6 8 -9 -20 4 -5 7 25 -17 2 -12 -14 -16 -18 -19 21 -1 -24 -3 10 -22 -15  0
6 8 -9 -20 4 -5 7 25 -17 2 -12 -14 -16 -18 -19 21 24 -3 10 -11 22 -15  0
6 8 -9 -20 4 -5 7 25 -17 2 -12 -14 -16 -18 -19 21 -24 -3 10 -11 -22 -15  0
6 8 -9 -20 -4 -5 -7 25 -23 17 2 14 16 18 -19 21 -1 24 -3 10 22 -15  0
6 8 -9 -20 -4 -5 -7 25 -23 17 2 14 16 18 -19 21 -1 -24 -3 10 -22 -15  0
6 8 -9 -20 -4 -5 -7 25 -23 17 2 14 16 18 -19 21 24 -3 10 -11 22 -15  0
6 8 -9 -20 -4 -5 -7 25 -23 17 2 14 16 18 -19 21 -24 -3 10 -11 -22 -15  0
6 8 -9 -20 -4 -5 -7 25 -23 17 2 14 -16 18 19 21 -1 24 -3 10 22 -15  0
6 8 -9 -20 -4 -5 -7 25 -23 17 2 14 -16 18 19 21 -1 -24 -3 10 -22 -15  0
6 8 -9 -20 -4 -5 -7 25 -23 17 2 14 -16 18 19 21 24 -3 10 -11 22 -15  0
6 8 -9 -20 -4 -5 -7 25 -23 17 2 14 -16 18 19 21 -24 -3 10 -11 -22 -15  0
6 8 -9 -20 -4 -5 -7 25 -23 17 2 14 -16 -18 -19 21 -1 24 -3 10 22 -15  0
6 8 -9 -20 -4 -5 -7 25 -23 17 2 14 -16 -18 -19 21 -1 -24 -3 10 -22 -15  0
6 8 -9 -20 -4 -5 -7 25 -23 17 2 14 -16 -18 -19 21 24 -3 10 -11 22 -15  0
6 8 -9 -20 -4 -5 -7 25 -23 17 2 14 -16 -18 -19 21 -24 -3 10 -11 -22 -15  0
6 8 -9 -20 -4 -5 -7 25 -23 -17 2 -14 16 18 -19 21 -1 24 -3 10 22 -15  0
6 8 -9 -20 -4 -5 -7 25 -23 -17 2 -14 16 18 -19 21 -1 -24 -3 10 -22 -15  0
6 8 -9 -20 -4 -5 -7 25 -23 -17 2 -14 16 18 -19 21 24 -3 10 -11 22 -15  0
6 8 -9 -20 -4 -5 -7 25 -23 -17 2 -14 16 18 -19 21 -24 -3 10 -11 -22 -15  0
6 8 -9 -20 -4 -5 -7 25 -23 -17 2 -14 -16 18 19 21 -1 24 -3 10 22 -15  0
6 8 -9 -20 -4 -5 -7 25 -23 -17 2 -14 -16 18 19 21 -1 -24 -3 10 -22 -15  0
6 8 -9 -20 -4 -5 -7 25 -23 -17 2 -14 -16 18 19 21 24 -3 10 -11 22 -15  0
6 8 -9 -20 -4 -5 -7 25 -23 -17 2 -14 -16 18 19 21 -24 -3 10 -11 -22 -15  0
6 8 -9 -20 -4 -5 -7 25 -23 -17 2 -14 -16 -18 -19 21 -1 24 -3 10 22 -15  0
6 8 -9 -20 -4 -5 -7 25 -23 -17 2 -14 -16 -18 -19 21 -1 -24 -3 10 -22 -15  0
6 8 -9 -20 -4 -5 -7 25 -23 -17 2 -14 -16 -18 -19 21 24 -3 10 -11 22 -15  0
6 8 -9 -20 -4 -5 -7 25 -23 -17 2 -14 -16 -18 -19 21 -24 -3 10 -11 -22 -15  0
6 8 -9 -20 -4 -5 -7 25 17 2 -12 14 16 18 -19 21 -1 24 -3 10 22 -15  0
6 8 -9 -20 -4 -5 -7 25 17 2 -12 14 16 18 -19 21 -1 -24 -3 10 -22 -15  0
6 8 -9 -20 -4 -5 -7 25 17 2 -12 14 16 18 -19 21 24 -3 10 -11 22 -15  0
6 8 -9 -20 -4 -5 -7 25 17 2 -12 14 16 18 -19 21 -24 -3 10 -11 -22 -15  0
6 8 -9 -20 -4 -5 -7 25 17 2 -12 14 -16 18 19 21 -1 24 -3 10 22 -15  0
6 8 -9 -20 -4 -5 -7 25 17 2 -12 14 -16 18 19 21 -1 -24 -3 10 -22 -15  0
6 8 -9 -20 -4 -5 -7 25 17 2 -12 14 -16 18 19 21 24 -3 10 -11 22 -15  0
6 8 -9 -20 -4 -5 -7 25 17 2 -12 14 -16 18 19 21 -24 -3 10 -11 -22 -15  0
6 8 -9 -20 -4 -5 -7 25 17 2 -12 14 -16 -18 -19 21 -1 24 -3 10 22 -15  0
6 8 -9 -20 -4 -5 -7 25 17 2 -12 14 -16 -18 -19 21 -1 -24 -3 10 -22 -15  0
6 8 -9 -20 -4 -5 -7 25 17 2 -12 14 -16 -18 -19 21 24 -3 10 -11 22 -15  0
6 8 -9 -20 -4 -5 -7 25 17 2 -12 14 -16 -18 -19 21 -24 -3 10 -11 -22 -15  0
6 8 -9 -20 -4 -5 -7 25 -17 2 -12 -14 16 18 -19 21 -1 24 -3 10 22 -15  0
6 8 -9 -20 -4 -5 -7 25 -17 2 -12 -14 16 18 -19 21 -1 -24 -3 10 -22 -15  0
6 8 -9 -20 -4 -5 -7 25 -17 2 -12 -14 16 18 -19 21 24 -3 10 -11 22 -15  0
6 8 -9 -20 -4 -5 -7 25 -17 2 -12 -14 16 18 -19 21 -24 -3 10 -11 -22 -15  0
6 8 -9 -20 -4 -5 -7 25 -17 2 -12 -14 -16 18 19 21 -1 24 -3 10 22 -15  0
6 8 -9 -20 -4 -5 -7 25 -17 2 -12 -14 -16 18 19 21 -1 -24 -3 10 -22 -15  0
6 8 -9 -20 -4 -5 -7 25 -17 2 -12 -14 -16 18 19 21 24 -3 10 -11 22 -15  0
6 8 -9 -20 -4 -5 -7 25 -17 2 -12 -14 -16 18 19 21 -24 -3 10 -11 -22 -15  0
6 8 -9 -20 -4 -5 -7 25 -17 2 -12 -14 -16 -18 -19 21 -1 24 -3 10 22 -15  0
6 8 -9 -20 -4 -5 -7 25 -17 2 -12 -14 -16 -18 -19 21 -1 -24 -3 10 -22 -15  0
6 8 -9 -20 -4 -5 -7 25 -17 2 -12 -14 -16 -18 -19 21 24 -3 10 -11 22 -15  0
6 8 -9 -20 -4 -5 -7 25 -17 2 -12 -14 -16 -18 -19 21 -24 -3 10 -11 -22 -15  0
6 -8 9 -20 4 5 -7 25 -23 17 2 14 16 18 -19 21 -1 24 10 22 -15  0
6 -8 9 -20 4 5 -7 25 -23 17 2 14 16 18 -19 21 -1 -24 10 -22 -15  0
6 -8 9 -20 4 5 -7 25 -23 17 2 14 16 18 -19 21 24 10 -11 22 -15  0
6 -8 9 -20 4 5 -7 25 -23 17 2 14 16 18 -19 21 -24 10 -11 -22 -15  0
6 -8 9 -20 4 5 -7 25 -23 17 2 14 -16 18 19 21 -1 24 10 22 -15  0
6 -8 9 -20 4 5 -7 25 -23 17 2 14 -16 18 19 21 -1 -24 10 -22 -15  0
6 -8 9 -20 4 5 -7 25 -23 17 2 14 -16 18 19 21 24 10 -11 22 -15  0
6 -8 9 -20 4 5 -7 25 -23 17 2 14 -16 18 19 21 -24 10 -11 -22 -15  0
6 -8 9 -20 4 5 -7 25 -23 17 2 14 -16 -18 -19 21 -1 24 10 22 -15  0
6 -8 9 -20 4 5 -7 25 -23 17 2 14 -16 -18 -19 21 -1 -24 10 -22 -15  0
6 -8 9 -20 4 5 -7 25 -23 17 2 14 -16 -18 -19 21 24 10 -11 22 -15  0
6 -8 9 -20 4 5 -7 25 -23 17 2 14 -16 -18 -19 21 -24 10 -11 -22 -15  0
6 -8 9 -20 4 5 -7 25 -23 -17 2 -14 16 18 -19 21 -1 24 10 22 -15  0
6 -8 9 -20 4 5 -7 25 -23 -17 2 -14 16 18 -19 21 -1 -24 10 -22 -15  0
6 -8 9 -20 4 5 -7 25 -23 -17 2 -14 16 18 -19 21 24 10 -11 22 -15  0
6 -8 9 -20 4 5 -7 25 -23 -17 2 -14 16 18 -19 21 -24 10 -11 -22 -15  0
6 -8 9 -20 4 5 -7 25 -23 -17 2 -14 -16 18 19 21 -1 24 10 22 -15  0
6 -8 9 -20 4 5 -7 25 -23 -17 2 -14 -16 18 19 21 -1 -24 10 -22 -15  0
6 -8 9 -20 4 5 -7 25 -23 -17 2 -14 -16 18 19 21 24 10 -11 22 -15  0
6 -8 9 -20 4 5 -7 25 -23 -17 2 -14 -16 18 19 21 -24 10 -11 -22 -15  0
6 -8 9 -20 4 5 -7 25 -23 -17 2 -14 -16 -18 -19 21 -1 24 10 22 -15  0
6 -8 9 -20 4 5 -7 25 -23 -17 2 -14 -16 -18 -19 21 -1 -24 10 -22 -15  0
6 -8 9 -20 4 5 -7 25 -23 -17 2 -14 -16 -18 -19 21 24 10 -11 22 -15  0
6 -8 9 -20 4 5 -7 25 -23 -17 2 -14 -16 -18 -19 21 -24 10 -11 -22 -15  0
6 -8 9 -20 4 5 -7 25 17 2 -12 14 16 18 -19 21 -1 24 10 22 -15  0
6 -8 9 -20 4 5 -7 25 17 2 -12 14 16 18 -19 21 -1 -24 10 -22 -15  0
6 -8 9 -20 4 5 -7 25 17 2 -12 14 16 18 -19 21 24 10 -11 22 -15  0
6 -8 9 -20 4 5 -7 25 17 2 -12 14 16 18 -19 21 -24 10 -11 -22 -15  0
6 -8 9 -20 4 5 -7 25 17 2 -12 14 -16 18 19 21 -1 24 10 22 -15  0
6 -8 9 -20 4 5 -7 25 17 2 -12 14 -16 18 19 21 -1 -24 10 -22 -15  0
6 -8 9 -20 4 5 -7 25 17 2 -12 14 -16 18 19 21 24 10 -11 22 -15  0
6 -8 9 -20 4 5 -7 25 17 2 -12 14 -16 18 19 21 -24 10 -11 -22 -15  0
6 -8 9 -20 4 5 -7 25 17 2 -12 14 -16 -18 -19 21 -1 24 10 22 -15  0
6 -8 9 -20 4 5 -7 25 17 2 -12 14 -16 -18 -19 21 -1 -24 10 -22 -15  0
6 -8 9 -20 4 5 -7 25 17 2 -12 14 -16 -18 -19 21 24 10 -11 22 -15  0
6 -8 9 -20 4 5 -7 25 17 2 -12 14 -16 -18 -19 21 -24 10 -11 -22 -15  0
6 -8 9 -20 4 5 -7 25 -17 2 -12 -14 16 18 -19 21 -1 24 10 22 -15  0
6 -8 9 -20 4 5 -7 25 -17 2 -12 -14 16 18 -19 21 -1 -24 10 -22 -15  0
6 -8 9 -20 4 5 -7 25 -17 2 -12 -14 16 18 -19 21 24 10 -11 22 -15  0
6 -8 9 -20 4 5 -7 25 -17 2 -12 -14 16 18 -19 21 -24 10 -11 -22 -15  0
6 -8 9 -20 4 5 -7 25 -17 2 -12 -14 -16 18 19 21 -1 24 10 22 -15  0
6 -8 9 -20 4 5 -7 25 -17 2 -12 -14 -16 18 19 21 -1 -24 10 -22 -15  0
6 -8 9 -20 4 5 -7 25 -17 2 -12 -14 -16 18 19 21 24 10 -11 22 -15  0
6 -8 9 -20 4 5 -7 25 -17 2 -12 -14 -16 18 19 21 -24 10 -11 -22 -15  0
6 -8 9 -20 4 5 -7 25 -17 2 -12 -14 -16 -18 -19 21 -1 24 10 22 -15  0
6 -8 9 -20 4 5 -7 25 -17 2 -12 -14 -16 -18 -19 21 -1 -24 10 -22 -15  0
6 -8 9 -20 4 5 -7 25 -17 2 -12 -14 -16 -18 -19 21 24 10 -11 22 -15  0
6 -8 9 -20 4 5 -7 25 -17 2 -12 -14 -16 -18 -19 21 -24 10 -11 -22 -15  0
6 -8 9 -20 4 -5 7 25 -23 17 2 14 16 18 -19 21 -1 24 10 22 -15  0
6 -8 9 -20 4 -5 7 25 -23 17 2 14 16 18 -19 21 -1 -24 10 -22 -15  0
6 -8 9 -20 4 -5 7 25 -23 17 2 14 16 18 -19 21 24 10 -11 22 -15  0
6 -8 9 -20 4 -5 7 25 -23 17 2 14 16 18 -19 21 -24 10 -11 -22 -15  0
6 -8 9 -20 4 -5 7 25 -23 17 2 14 -16 18 19 21 -1 24 10 22 -15  0
6 -8 9 -20 4 -5 7 25 -23 17 2 14 -16 18 19 21 -1 -24 10 -22 -15  0
6 -8 9 -20 4 -5 7 25 -23 17 2 14 -16 18 19 21 24 10 -11 22 -15  0
6 -8 9 -20 4 -5 7 25 -23 17 2 14 -16 18 19 21 -24 10 -11 -22 -15  0
6 -8 9 -20 4 -5 7 25 -23 17 2 14 -16 -18 -19 21 -1 24 10 22 -15  0
6 -8 9 -20 4 -5 7 25 -23 17 2 14 -16 -18 -19 21 -1 -24 10 -22 -15  0
6 -8 9 -20 4 -5 7 25 -23 17 2 14 -16 -18 -19 21 24 10 -11 22 -15  0
6 -8 9 -20 4 -5 7 25 -23 17 2 14 -16 -18 -19 21 -24 10 -11 -22 -15  0
6 -8 9 -20 4 -5 7 25 -23 -17 2 -14 16 18 -19 21 -1 24 10 22 -15  0
6 -8 9 -20 4 -5 7 25 -23 -17 2 -14 16 18 -19 21 -1 -24 10 -22 -15  0
6 -8 9 -20 4 -5 7 25 -23 -17 2 -14 16 18 -19 21 24 10 -11 22 -15  0
6 -8 9 -20 4 -5 7 25 -23 -17 2 -14 16 18 -19 21 -24 10 -11 -22 -15  0
6 -8 9 -20 4 -5 7 25 -23 -17 2 -14 -16 18 19 21 -1 24 10 22 -15  0
6 -8 9 -20 4 -5 7 25 -23 -17 2 -14 -16 18 19 21 -1 -24 10 -22 -15  0
6 -8 9 -20 4 -5 7 25 -23 -17 2 -14 -16 18 19 21 24 10 -11 22 -15  0
6 -8 9 -20 4 -5 7 25 -23 -17 2 -14 -16 18 19 21 -24 10 -11 -22 -15  0
6 -8 9 -20 4 -5 7 25 -23 -17 2 -14 -16 -18 -19 21 -1 24 10 22 -15  0
6 -8 9 -20 4 -5 7 25 -23 -17 2 -14 -16 -18 -19 21 -1 -24 10 -22 -15  0
6 -8 9 -20 4 -5 7 25 -23 -17 2 -14 -16 -18 -19 21 24 10 -11 22 -15  0
6 -8 9 -20 4 -5 7 25 -23 -17 2 -14 -16 -18 -19 21 -24 10 -11 -22 -15  0
6 -8 9 -20 4 -5 7 25 17 2 -12 14 16 18 -19 21 -1 24 10 22 -15  0
6 -8 9 -20 4 -5 7 25 17 2 -12 14 16 18 -19 21 -1 -24 10 -22 -15  0
6 -8 9 -20 4 -5 7 25 17 2 -12 14 16 18 -19 21 24 10 -11 22 -15  0
6 -8 9 -20 4 -5 7 25 17 2 -12 14 16 18 -19 21 -24 10 -11 -22 -15  0
6 -8 9 -20 4 -5 7 25 17 2 -12 14 -16 18 19 21 -1 24 10 22 -15  0
6 -8 9 -20 4 -5 7 25 17 2 -12 14 -16 18 19 21 -1 -24 10 -22 -15  0
6 -8 9 -20 4 -5 7 25 17 2 -12 14 -16 18 19 21 24 10 -11 22 -15  0
6 -8 9 -20 4 -5 7 25 17 2 -12 14 -16 18 19 21 -24 10 -11 -22 -15  0
6 -8 9 -20 4 -5 7 25 17 2 -12 14 -16 -18 -19 21 -1 24 10 22 -15  0
6 -8 9 -20 4 -5 7 25 17 2 -12 14 -16 -18 -19 21 -1 -24 10 -22 -15  0
6 -8 9 -20 4 -5 7 25 17 2 -12 14 -16 -18 -19 21 24 10 -11 22 -15  0
6 -8 9 -20 4 -5 7 25 17 2 -12 14 -16 -18 -19 21 -24 10 -11 -22 -15  0
6 -8 9 -20 4 -5 7 25 -17 2 -12 -14 16 18 -19 21 -1 24 10 22 -15  0
6 -8 9 -20 4 -5 7 25 -17 2 -12 -14 16 18 -19 21 -1 -24 10 -22 -15  0
6 -8 9 -20 4 -5 7 25 -17 2 -12 -14 16 18 -19 21 24 10 -11 22 -15  0
6 -8 9 -20 4 -5 7 25 -17 2 -12 -14 16 18 -19 21 -24 10 -11 -22 -15  0
6 -8 9 -20 4 -5 7 25 -17 2 -12 -14 -16 18 19 21 -1 24 10 22 -15  0
6 -8 9 -20 4 -5 7 25 -17 2 -12 -14 -16 18 19 21 -1 -24 10 -22 -15  0
6 -8 9 -20 4 -5 7 25 -17 2 -12 -14 -16 18 19 21 24 10 -11 22 -15  0
6 -8 9 -20 4 -5 7 25 -17 2 -12 -14 -16 18 19 21 -24 10 -11 -22 -15  0
6 -8 9 -20 4 -5 7 25 -17 2 -12 -14 -16 -18 -19 21 -1 24 10 22 -15  0
6 -8 9 -20 4 -5 7 25 -17 2 -12 -14 -16 -18 -19 21 -1 -24 10 -22 -15  0
6 -8 9 -20 4 -5 7 25 -17 2 -12 -14 -16 -18 -19 21 24 10 -11 22 -15  0
6 -8 9 -20 4 -5 7 25 -17 2 -12 -14 -16 -18 -19 21 -24 10 -11 -22 -15  0
6 -8 9 -20 -4 -5 -7 25 -23 17 2 14 16 18 -19 21 -1 24 10 22 -15  0
6 -8 9 -20 -4 -5 -7 25 -23 17 2 14 16 18 -19 21 -1 -24 10 -22 -15  0
6 -8 9 -20 -4 -5 -7 25 -23 17 2 14 16 18 -19 21 24 10 -11 22 -15  0
6 -8 9 -20 -4 -5 -7 25 -23 17 2 14 16 18 -19 21 -24 10 -11 -22 -15  0
6 -8 9 -20 -4 -5 -7 25 -23 17 2 14 -16 18 19 21 -1 24 10 22 -15  0
6 -8 9 -20 -4 -5 -7 25 -23 17 2 14 -16 18 19 21 -1 -24 10 -22 -15  0
6 -8 9 -20 -4 -5 -7 25 -23 17 2 14 -16 18 19 21 24 10 -11 22 -15  0
6 -8 9 -20 -4 -5 -7 25 -23 17 2 14 -16 18 19 21 -24 10 -11 -22 -15  0
6 -8 9 -20 -4 -5 -7 25 -23 17 2 14 -16 -18 -19 21 -1 24 10 22 -15  0
6 -8 9 -20 -4 -5 -7 25 -23 17 2 14 -16 -18 -19 21 -1 -24 10 -22 -15  0
6 -8 9 -20 -4 -5 -7 25 -23 17 2 14 -16 -18 -19 21 24 10 -11 22 -15  0
6 -8 9 -20 -4 -5 -7 25 -23 17 2 14 -16 -18 -19 21 -24 10 -11 -22 -15  0
6 -8 9 -20 -4 -5 -7 25 -23 -17 2 -14 16 18 -19 21 -1 24 10 22 -15  0
6 -8 9 -20 -4 -5 -7 25 -23 -17 2 -14 16 18 -19 21 -1 -24 10 -22 -15  0
6 -8 9 -20 -4 -5 -7 25 -23 -17 2 -14 16 18 -19 21 24 10 -11 22 -15  0
6 -8 9 -20 -4 -5 -7 25 -23 -17 2 -14 16 18 -19 21 -24 10 -11 -22 -15  0
6 -8 9 -20 -4 -5 -7 25 -23 -17 2 -14 -16 18 19 21 -1 24 10 22 -15  0
6 -8 9 -20 -4 -5 -7 25 -23 -17 2 -14 -16 18 19 21 -1 -24 10 -22 -15  0
6 -8 9 -20 -4 -5 -7 25 -23 -17 2 -14 -16 18 19 21 24 10 -11 22 -15  0
6 -8 9 -20 -4 -5 -7 25 -23 -17 2 -14 -16 18 19 21 -24 10 -11 -22 -15  0
6 -8 9 -20 -4 -5 -7 25 -23 -17 2 -14 -16 -18 -19 21 -1 24 10 22 -15  0
6 -8 9 -20 -4 -5 -7 25 -23 -17 2 -14 -16 -18 -19 21 -1 -24 10 -22 -15  0
6 -8 9 -20 -4 -5 -7 25 -23 -17 2 -14 -16 -18 -19 21 24 10 -11 22 -15  0
6 -8 9 -20 -4 -5 -7 25 -23 -17 2 -14 -16 -18 -19 21 -24 10 -11 -22 -15  0
6 -8 9 -20 -4 -5 -7 25 17 2 -12 14 16 18 -19 21 -1 24 10 22 -15  0
6 -8 9 -20 -4 -5 -7 25 17 2 -12 14 16 18 -19 21 -1 -24 10 -22 -15  0
6 -8 9 -20 -4 -5 -7 25 17 2 -12 14 16 18 -19 21 24 10 -11 22 -15  0
6 -8 9 -20 -4 -5 -7 25 17 2 -12 14 16 18 -19 21 -24 10 -11 -22 -15  0
6 -8 9 -20 -4 -5 -7 25 17 2 -12 14 -16 18 19 21 -1 24 10 22 -15  0
6 -8 9 -20 -4 -5 -7 25 17 2 -12 14 -16 18 19 21 -1 -24 10 -22 -15  0
6 -8 9 -20 -4 -5 -7 25 17 2 -12 14 -16 18 19 21 24 10 -11 22 -15  0
6 -8 9 -20 -4 -5 -7 25 17 2 -12 14 -16 18 19 21 -24 10 -11 -22 -15  0
6 -8 9 -20 -4 -5 -7 25 17 2 -12 14 -16 -18 -19 21 -1 24 10 22 -15  0
6 -8 9 -20 -4 -5 -7 25 17 2 -12 14 -16 -18 -19 21 -1 -24 10 -22 -15  0
6 -8 9 -20 -4 -5 -7 25 17 2 -12 14 -16 -18 -19 21 24 10 -11 22 -15  0
6 -8 9 -20 -4 -5 -7 25 17 2 -12 14 -16 -18 -19 21 -24 10 -11 -22 -15  0
6 -8 9 -20 -4 -5 -7 25 -17 2 -12 -14 16 18 -19 21 -1 24 10 22 -15  0
6 -8 9 -20 -4 -5 -7 25 -17 2 -12 -14 16 18 -19 21 -1 -24 10 -22 -15  0
6 -8 9 -20 -4 -5 -7 25 -17 2 -12 -14 16 18 -19 21 24 10 -11 22 -15  0
6 -8 9 -20 -4 -5 -7 25 -17 2 -12 -14 16 18 -19 21 -24 10 -11 -22 -15  0
6 -8 9 -20 -4 -5 -7 25 -17 2 -12 -14 -16 18 19 21 -1 24 10 22 -15  0
6 -8 9 -20 -4 -5 -7 25 -17 2 -12 -14 -16 18 19 21 -1 -24 10 -22 -15  0
6 -8 9 -20 -4 -5 -7 25 -17 2 -12 -14 -16 18 19 21 24 10 -11 22 -15  0
6 -8 9 -20 -4 -5 -7 25 -17 2 -12 -14 -16 18 19 21 -24 10 -11 -22 -15  0
6 -8 9 -20 -4 -5 -7 25 -17 2 -12 -14 -16 -18 -19 21 -1 24 10 22 -15  0
6 -8 9 -20 -4 -5 -7 25 -17 2 -12 -14 -16 -18 -19 21 -1 -24 10 -22 -15  0
6 -8 9 -20 -4 -5 -7 25 -17 2 -12 -14 -16 -18 -19 21 24 10 -11 22 -15  0
6 -8 9 -20 -4 -5 -7 25 -17 2 -12 -14 -16 -18 -19 21 -24 10 -11 -22 -15  0
-6 -8 -9 -20 4 5 -7 25 -23 17 2 14 16 18 -19 21 -1 24 -3 10 22 -15  0
-6 -8 -9 -20 4 5 -7 25 -23 17 2 14 16 18 -19 21 -1 -24 -3 10 -22 -15  0
-6 -8 -9 -20 4 5 -7 25 -23 17 2 14 16 18 -19 21 24 -3 10 -11 22 -15  0
-6 -8 -9 -20 4 5 -7 25 -23 17 2 14 16 18 -19 21 -24 -3 10 -11 -22 -15  0
-6 -8 -9 -20 4 5 -7 25 -23 17 2 14 -16 18 19 21 -1 24 -3 10 22 -15  0
-6 -8 -9 -20 4 5 -7 25 -23 17 2 14 -16 18 19 21 -1 -24 -3 10 -22 -15  0
-6 -8 -9 -20 4 5 -7 25 -23 17 2 14 -16 18 19 21 24 -3 10 -11 22 -15  0
-6 -8 -9 -20 4 5 -7 25 -23 17 2 14 -16 18 19 21 -24 -3 10 -11 -22 -15  0
-6 -8 -9 -20 4 5 -7 25 -23 17 2 14 -16 -18 -19 21 -1 24 -3 10 22 -15  0
-6 -8 -9 -20 4 5 -7 25 -23 17 2 14 -16 -18 -19 21 -1 -24 -3 10 -22 -15  0
-6 -8 -9 -20 4 5 -7 25 -23 17 2 14 -16 -18 -19 21 24 -3 10 -11 22 -15  0
-6 -8 -9 -20 4 5 -7 25 -23 17 2 14 -16 -18 -19 21 -24 -3 10 -11 -22 -15  0
-6 -8 -9 -20 4 5 -7 25 -23 -17 2 -14 16 18 -19 21 -1 24 -3 10 22 -15  0
-6 -8 -9 -20 4 5 -7 25 -23 -17 2 -14 16 18 -19 21 -1 -24 -3 10 -22 -15  0
-6 -8 -9 -20 4 5 -7 25 -23 -17 2 -14 16 18 -19 21 24 -3 10 -11 22 -15  0
-6 -8 -9 -20 4 5 -7 25 -23 -17 2 -14 16 18 -19 21 -24 -3 10 -11 -22 -15  0
-6 -8 -9 -20 4 5 -7 25 -23 -17 2 -14 -16 18 19 21 -1 24 -3 10 22 -15  0
-6 -8 -9 -20 4 5 -7 25 -23 -17 2 -14 -16 18 19 21 -1 -24 -3 10 -22 -15  0
-6 -8 -9 -20 4 5 -7 25 -23 -17 2 -14 -16 18 19 21 24 -3 10 -11 22 -15  0
-6 -8 -9 -20 4 5 -7 25 -23 -17 2 -14 -16 18 19 21 -24 -3 10 -11 -22 -15  0
-6 -8 -9 -20 4 5 -7 25 -23 -17 2 -14 -16 -18 -19 21 -1 24 -3 10 22 -15  0
-6 -8 -9 -20 4 5 -7 25 -23 -17 2 -14 -16 -18 -19 21 -1 -24 -3 10 -22 -15  0
-6 -8 -9 -20 4 5 -7 25 -23 -17 2 -14 -16 -18 -19 21 24 -3 10 -11 22 -15  0
-6 -8 -9 -20 4 5 -7 25 -23 -17 2 -14 -16 -18 -19 21 -24 -3 10 -11 -22 -15  0
-6 -8 -9 -20 4 5 -7 25 17 2 -12 14 16 18 -19 21 -1 24 -3 10 22 -15  0
-6 -8 -9 -20 4 5 -7 25 17 2 -12 14 16 18 -19 21 -1 -24 -3 10 -22 -15  0
-6 -8 -9 -20 4 5 -7 25 17 2 -12 14 16 18 -19 21 24 -3 10 -11 22 -15  0
-6 -8 -9 -20 4 5 -7 25 17 2 -12 14 16 18 -19 21 -24 -3 10 -11 -22 -15  0
-6 -8 -9 -20 4 5 -7 25 17 2 -12 14 -16 18 19 21 -1 24 -3 10 22 -15  0
-6 -8 -9 -20 4 5 -7 25 17 2 -12 14 -16 18 19 21 -1 -24 -3 10 -22 -15  0
-6 -8 -9 -20 4 5 -7 25 17 2 -12 14 -16 18 19 21 24 -3 10 -11 22 -15  0
-6 -8 -9 -20 4 5 -7 25 17 2 -12 14 -16 18 19 21 -24 -3 10 -11 -22 -15  0
-6 -8 -9 -20 4 5 -7 25 17 2 -12 14 -16 -18 -19 21 -1 24 -3 10 22 -15  0
-6 -8 -9 -20 4 5 -7 25 17 2 -12 14 -16 -18 -19 21 -1 -24 -3 10 -22 -15  0
-6 -8 -9 -20 4 5 -7 25 17 2 -12 14 -16 -18 -19 21 24 -3 10 -11 22 -15  0
-6 -8 -9 -20 4 5 -7 25 17 2 -12 14 -16 -18 -19 21 -24 -3 10 -11 -22 -15  0
-6 -8 -9 -20 4 5 -7 25 -17 2 -12 -14 16 18 -19 21 -1 24 -3 10 22 -15  0
-6 -8 -9 -20 4 5 -7 25 -17 2 -12 -14 16 18 -19 21 -1 -24 -3 10 -22 -15  0
-6 -8 -9 -20 4 5 -7 25 -17 2 -12 -14 16 18 -19 21 24 -3 10 -11 22 -15  0
-6 -8 -9 -20 4 5 -7 25 -17 2 -12 -14 16 18 -19 21 -24 -3 10 -11 -22 -15  0
-6 -8 -9 -20 4 5 -7 25 -17 2 -12 -14 -16 18 19 21 -1 24 -3 10 22 -15  0
-6 -8 -9 -20 4 5 -7 25 -17 2 -12 -14 -16 18 19 21 -1 -24 -3 10 -22 -15  0
-6 -8 -9 -20 4 5 -7 25 -17 2 -12 -14 -16 18 19 21 24 -3 10 -11 22 -15  0
-6 -8 -9 -20 4 5 -7 25 -17 2 -12 -14 -16 18 19 21 -24 -3 10 -11 -22 -15  0
-6 -8 -9 -20 4 5 -7 25 -17 2 -12 -14 -16 -18 -19 21 -1 24 -3 10 22 -15  0
-6 -8 -9 -20 4 5 -7 25 -17 2 -12 -14 -16 -18 -19 21 -1 -24 -3 10 -22 -15  0
-6 -8 -9 -20 4 5 -7 25 -17 2 -12 -14 -16 -18 -19 21 24 -3 10 -11 22 -15  0
-6 -8 -9 -20 4 5 -7 25 -17 2 -12 -14 -16 -18 -19 21 -24 -3 10 -11 -22 -15  0
-6 -8 -9 -20 4 -5 7 25 -23 17 2 14 16 18 -19 21 -1 24 -3 10 22 -15  0
-6 -8 -9 -20 4 -5 7 25 -23 17 2 14 16 18 -19 21 -1 -24 -3 10 -22 -15  0
-6 -8 -9 -20 4 -5 7 25 -23 17 2 14 16 18 -19 21 24 -3 10 -11 22 -15  0
-6 -8 -9 -20 4 -5 7 25 -23 17 2 14 16 18 -19 21 -24 -3 10 -11 -22 -15  0
-6 -8 -9 -20 4 -5 7 25 -23 17 2 14 -16 18 19 21 -1 24 -3 10 22 -15  0
-6 -8 -9 -20 4 -5 7 25 -23 17 2 14 -16 18 19 21 -1 -24 -3 10 -22 -15  0
-6 -8 -9 -20 4 -5 7 25 -23 17 2 14 -16 18 19 21 24 -3 10 -11 22 -15  0
-6 -8 -9 -20 4 -5 7 25 -23 17 2 14 -16 18 19 21 -24 -3 10 -11 -22 -15  0
-6 -8 -9 -20 4 -5 7 25 -23 17 2 14 -16 -18 -19 21 -1 24 -3 10 22 -15  0
-6 -8 -9 -20 4 -5 7 25 -23 17 2 14 -16 -18 -19 21 -1 -24 -3 10 -22 -15  0
-6 -8 -9 -20 4 -5 7 25 -23 17 2 14 -16 -18 -19 21 24 -3 10 -11 22 -15  0
-6 -8 -9 -20 4 -5 7 25 -23 17 2 14 -16 -18 -19 21 -24 -3 10 -11 -22 -15  0
-6 -8 -9 -20 4 -5 7 25 -23 -17 2 -14 16 18 -19 21 -1 24 -3 10 22 -15  0
-6 -8 -9 -20 4 -5 7 25 -23 -17 2 -14 16 18 -19 21 -1 -24 -3 10 -22 -15  0
-6 -8 -9 -20 4 -5 7 25 -23 -17 2 -14 16 18 -19 21 24 -3 10 -11 22 -15  0
-6 -8 -9 -20 4 -5 7 25 -23 -17 2 -14 16 18 -19 21 -24 -3 10 -11 -22 -15  0
-6 -8 -9 -20 4 -5 7 25 -23 -17 2 -14 -16 18 19 21 -1 24 -3 10 22 -15  0
-6 -8 -9 -20 4 -5 7 25 -23 -17 2 -14 -16 18 19 21 -1 -24 -3 10 -22 -15  0
-6 -8 -9 -20 4 -5 7 25 -23 -17 2 -14 -16 18 19 21 24 -3 10 -11 22 -15  0
-6 -8 -9 -20 4 -5 7 25 -23 -17 2 -14 -16 18 19 21 -24 -3 10 -11 -22 -15  0
-6 -8 -9 -20 4 -5 7 25 -23 -17 2 -14 -16 -18 -19 21 -1 24 -3 10 22 -15  0
-6 -8 -9 -20 4 -5 7 25 -23 -17 2 -14 -16 -18 -19 21 -1 -24 -3 10 -22 -15  0
-6 -8 -9 -20 4 -5 7 25 -23 -17 2 -14 -16 -18 -19 21 24 -3 10 -11 22 -15  0
-6 -8 -9 -20 4 -5 7 25 -23 -17 2 -14 -16 -18 -19 21 -24 -3 10 -11 -22 -15  0
-6 -8 -9 -20 4 -5 7 25 17 2 -12 14 16 18 -19 21 -1 24 -3 10 22 -15  0
-6 -8 -9 -20 4 -5 7 25 17 2 -12 14 16 18 -19 21 -1 -24 -3 10 -22 -15  0
-6 -8 -9 -20 4 -5 7 25 17 2 -12 14 16 18 -19 21 24 -3 10 -11 22 -15  0
-6 -8 -9 -20 4 -5 7 25 17 2 -12 14 16 18 -19 21 -24 -3 10 -11 -22 -15  0
-6 -8 -9 -20 4 -5 7 25 17 2 -12 14 -16 18 19 21 -1 24 -3 10 22 -15  0
-6 -8 -9 -20 4 -5 7 25 17 2 -12 14 -16 18 19 21 -1 -24 -3 10 -22 -15  0
-6 -8 -9 -20 4 -5 7 25 17 2 -12 14 -16 18 19 21 24 -3 10 -11 22 -15  0
-6 -8 -9 -20 4 -5 7 25 17 2 -12 14 -16 18 19 21 -24 -3 10 -11 -22 -15  0
-6 -8 -9 -20 4 -5 7 25 17 2 -12 14 -16 -18 -19 21 -1 24 -3 10 22 -15  0
-6 -8 -9 -20 4 -5 7 25 17 2 -12 14 -16 -18 -19 21 -1 -24 -3 10 -22 -15  0
-6 -8 -9 -20 4 -5 7 25 17 2 -12 14 -16 -18 -19 21 24 -3 10 -11 22 -15  0
-6 -8 -9 -20 4 -5 7 25 17 2 -12 14 -16 -18 -19 21 -24 -3 10 -11 -22 -15  0
-6 -8 -9 -20 4 -5 7 25 -17 2 -12 -14 16 18 -19 21 -1 24 -3 10 22 -15  0
-6 -8 -9 -20 4 -5 7 25 -17 2 -12 -14 16 18 -19 21 -1 -24 -3 10 -22 -15  0
-6 -8 -9 -20 4 -5 7 25 -17 2 -12 -14 16 18 -19 21 24 -3 10 -11 22 -15  0
-6 -8 -9 -20 4 -5 7 25 -17 2 -12 -14 16 18 -19 21 -24 -3 10 -11 -22 -15  0
-6 -8 -9 -20 4 -5 7 25 -17 2 -12 -14 -16 18 19 21 -1 24 -3 10 22 -15  0
-6 -8 -9 -20 4 -5 7 25 -17 2 -12 -14 -16 18 19 21 -1 -24 -3 10 -22 -15  0
-6 -8 -9 -20 4 -5 7 25 -17 2 -12 -14 -16 18 19 21 24 -3 10 -11 22 -15  0
-6 -8 -9 -20 4 -5 7 25 -17 2 -12 -14 -16 18 19 21 -24 -3 10 -11 -22 -15  0
-6 -8 -9 -20 4 -5 7 25 -17 2 -12 -14 -16 -18 -19 21 -1 24 -3 10 22 -15  0
-6 -8 -9 -20 4 -5 7 25 -17 2 -12 -14 -16 -18 -19 21 -1 -24 -3 10 -22 -15  0
-6 -8 -9 -20 4 -5 7 25 -17 2 -12 -14 -16 -18 -19 21 24 -3 10 -11 22 -15  0
-6 -8 -9 -20 4 -5 7 25 -17 2 -12 -14 -16 -18 -19 21 -24 -3 10 -11 -22 -15  0
-6 -8 -9 -20 -4 -5 -7 25 -23 17 2 14 16 18 -19 21 -1 24 -3 10 22 -15  0
-6 -8 -9 -20 -4 -5 -7 25 -23 17 2 14 16 18 -19 21 -1 -24 -3 10 -22 -15  0
-6 -8 -9 -20 -4 -5 -7 25 -23 17 2 14 16 18 -19 21 24 -3 10 -11 22 -15  0
-6 -8 -9 -20 -4 -5 -7 25 -23 17 2 14 16 18 -19 21 -24 -3 10 -11 -22 -15  0
-6 -8 -9 -20 -4 -5 -7 25 -23 17 2 14 -16 18 19 21 -1 24 -3 10 22 -15  0
-6 -8 -9 -20 -4 -5 -7 25 -23 17 2 14 -16 18 19 21 -1 -24 -3 10 -22 -15  0
-6 -8 -9 -20 -4 -5 -7 25 -23 17 2 14 -16 18 19 21 24 -3 10 -11 22 -15  0
-6 -8 -9 -20 -4 -5 -7 25 -23 17 2 14 -16 18 19 21 -24 -3 10 -11 -22 -15  0
-6 -8 -9 -20 -4 -5 -7 25 -23 17 2 14 -16 -18 -19 21 -1 24 -3 10 22 -15  0
-6 -8 -9 -20 -4 -5 -7 25 -23 17 2 14 -16 -18 -19 21 -1 -24 -3 10 -22 -15  0
-6 -8 -9 -20 -4 -5 -7 25 -23 17 2 14 -16 -18 -19 21 24 -3 10 -11 22 -15  0
-6 -8 -9 -20 -4 -5 -7 25 -23 17 2 14 -16 -18 -19 21 -24 -3 10 -11 -22 -15  0
-6 -8 -9 -20 -4 -5 -7 25 -23 -17 2 -14 16 18 -19 21 -1 24 -3 10 22 -15  0
-6 -8 -9 -20 -4 -5 -7 25 -23 -17 2 -14 16 18 -19 21 -1 -24 -3 10 -22 -15  0
-6 -8 -9 -20 -4 -5 -7 25 -23 -17 2 -14 16 18 -19 21 24 -3 10 -11 22 -15  0
-6 -8 -9 -20 -4 -5 -7 25 -23 -17 2 -14 16 18 -19 21 -24 -3 10 -11 -22 -15  0
-6 -8 -9 -20 -4 -5 -7 25 -23 -17 2 -14 -16 18 19 21 -1 24 -3 10 22 -15  0
-6 -8 -9 -20 -4 -5 -7 25 -23 -17 2 -14 -16 18 19 21 -1 -24 -3 10 -22 -15  0
-6 -8 -9 -20 -4 -5 -7 25 -23 -17 2 -14 -16 18 19 21 24 -3 10 -11 22 -15  0
-6 -8 -9 -20 -4 -5 -7 25 -23 -17 2 -14 -16 18 19 21 -24 -3 10 -11 -22 -15  0
-6 -8 -9 -20 -4 -5 -7 25 -23 -17 2 -14 -16 -18 -19 21 -1 24 -3 10 22 -15  0
-6 -8 -9 -20 -4 -5 -7 25 -23 -17 2 -14 -16 -18 -19 21 -1 -24 -3 10 -22 -15  0
-6 -8 -9 -20 -4 -5 -7 25 -23 -17 2 -14 -16 -18 -19 21 24 -3 10 -11 22 -15  0
-6 -8 -9 -20 -4 -5 -7 25 -23 -17 2 -14 -16 -18 -19 21 -24 -3 10 -11 -22 -15  0
-6 -8 -9 -20 -4 -5 -7 25 17 2 -12 14 16 18 -19 21 -1 24 -3 10 22 -15  0
-6 -8 -9 -20 -4 -5 -7 25 17 2 -12 14 16 18 -19 21 -1 -24 -3 10 -22 -15  0
-6 -8 -9 -20 -4 -5 -7 25 17 2 -12 14 16 18 -19 21 24 -3 10 -11 22 -15  0
-6 -8 -9 -20 -4 -5 -7 25 17 2 -12 14 16 18 -19 21 -24 -3 10 -11 -22 -15  0
-6 -8 -9 -20 -4 -5 -7 25 17 2 -12 14 -16 18 19 21 -1 24 -3 10 22 -15  0
-6 -8 -9 -20 -4 -5 -7 25 17 2 -12 14 -16 18 19 21 -1 -24 -3 10 -22 -15  0
-6 -8 -9 -20 -4 -5 -7 25 17 2 -12 14 -16 18 19 21 24 -3 10 -11 22 -15  0
-6 -8 -9 -20 -4 -5 -7 25 17 2 -12 14 -16 18 19 21 -24 -3 10 -11 -22 -15  0
-6 -8 -9 -20 -4 -5 -7 25 17 2 -12 14 -16 -18 -19 21 -1 24 -3 10 22 -15  0
-6 -8 -9 -20 -4 -5 -7 25 17 2 -12 14 -16 -18 -19 21 -1 -24 -3 10 -22 -15  0
-6 -8 -9 -20 -4 -5 -7 25 17 2 -12 14 -16 -18 -19 21 24 -3 10 -11 22 -15  0
-6 -8 -9 -20 -4 -5 -7 25 17 2 -12 14 -16 -18 -19 21 -24 -3 10 -11 -22 -15  0
-6 -8 -9 -20 -4 -5 -7 25 -17 2 -12 -14 16 18 -19 21 -1 24 -3 10 22 -15  0
-6 -8 -9 -20 -4 -5 -7 25 -17 2 -12 -14 16 18 -19 21 -1 -24 -3 10 -22 -15  0
-6 -8 -9 -20 -4 -5 -7 25 -17 2 -12 -14 16 18 -19 21 24 -3 10 -11 22 -15  0
-6 -8 -9 -20 -4 -5 -7 25 -17 2 -12 -14 16 18 -19 21 -24 -3 10 -11 -22 -15  0
-6 -8 -9 -20 -4 -5 -7 25 -17 2 -12 -14 -16 18 19 21 -1 24 -3 10 22 -15  0
-6 -8 -9 -20 -4 -5 -7 25 -17 2 -12 -14 -16 18 19 21 -1 -24 -3 10 -22 -15  0
-6 -8 -9 -20 -4 -5 -7 25 -17 2 -12 -14 -16 18 19 21 24 -3 10 -11 22 -15  0
-6 -8 -9 -20 -4 -5 -7 25 -17 2 -12 -14 -16 18 19 21 -24 -3 10 -11 -22 -15  0
-6 -8 -9 -20 -4 -5 -7 25 -17 2 -12 -14 -16 -18 -19 21 -1 24 -3 10 22 -15  0
-6 -8 -9 -20 -4 -5 -7 25 -17 2 -12 -14 -16 -18 -19 21 -1 -24 -3 10 -22 -15  0
-6 -8 -9 -20 -4 -5 -7 25 -17 2 -12 -14 -16 -18 -19 21 24 -3 10 -11 22 -15  0
-6 -8 -9 -20 -4 -5 -7 25 -17 2 -12 -14 -16 -18 -19 21 -24 -3 10 -11 -22 -15  0
